// Sun May 06 16:16:07 CST 2018
// minnfv run10

CPXPARAM_MIP_Strategy_NodeSelect                 2
CPXPARAM_MIP_Strategy_CallbackReducedLP          0
Tried aggregator 2 times.
MIP Presolve eliminated 319 rows and 19 columns.
MIP Presolve modified 13711 coefficients.
Aggregator did 108 substitutions.
Reduced MIP has 3830 rows, 2582 columns, and 17074 nonzeros.
Reduced MIP has 1829 binaries, 753 generals, 0 SOSs, and 0 indicators.
Presolve time = 0.03 sec. (24.89 ticks)
Probing fixed 105 vars, tightened 0 bounds.
Probing time = 0.00 sec. (1.42 ticks)
Cover probing fixed 0 vars, tightened 18 bounds.
Tried aggregator 1 time.
MIP Presolve eliminated 111 rows and 105 columns.
MIP Presolve modified 2567 coefficients.
Reduced MIP has 3719 rows, 2477 columns, and 15932 nonzeros.
Reduced MIP has 1724 binaries, 753 generals, 0 SOSs, and 0 indicators.
Presolve time = 0.05 sec. (16.13 ticks)
Probing time = 0.02 sec. (1.18 ticks)
Clique table members: 1173.
MIP emphasis: balance optimality and feasibility.
MIP search method: dynamic search.
Parallel mode: deterministic, using up to 32 threads.
Root relaxation solution time = 0.14 sec. (42.91 ticks)

        Nodes                                         Cuts/
   Node  Left     Objective  IInf  Best Integer    Best Bound    ItCnt     Gap

      0     0       78.0440   111                     78.0440     1169         
      0     0       78.0459   266                   Cuts: 138     2015         
      0     0       78.0474   115                    Cuts: 68     2185         
      0     0       78.0482   122                    Cuts: 39     2458         
      0     0       78.0486   306                    Cuts: 31     2746         
      0     2       78.0486   290                     78.0489     2746         
Elapsed time = 4.88 sec. (761.37 ticks, tree = 0.01 MB, solutions = 0)
*    10+    5                          121.0440       78.0489            35.52%
*    14+    4                          118.0440       78.0489            33.88%
    640   229       80.5658   123      118.0440       78.0570    40919   33.87%
   3257  1641       80.5670   119      118.0440       78.0570   102477   33.87%
   4603  2336        cutoff            118.0440       78.0570   183714   33.87%
   6200  2469        cutoff            118.0440       78.0570   258667   33.87%
   7522  2584    infeasible            118.0440       78.0570   349398   33.87%
*  8036     0      integral     0      118.0440                 434097    0.00%

Clique cuts applied:  41
Cover cuts applied:  36
Implied bound cuts applied:  158
Flow cuts applied:  21
Mixed integer rounding cuts applied:  44
Zero-half cuts applied:  18
Lift and project cuts applied:  44
Gomory fractional cuts applied:  13

Root node processing (before b&c):
  Real time             =    2.16 sec. (756.87 ticks)
Parallel b&c, 32 threads:
  Real time             =   26.70 sec. (1708.62 ticks)
  Sync time (average)   =   20.05 sec.
  Wait time (average)   =    0.04 sec.
                          ------------
Total (root+branch&cut) =   28.86 sec. (2465.50 ticks)
